NAME : random30
COMMENT : Random 30-city instance
TYPE : TSP
DIMENSION : 30
EDGE_WEIGHT_TYPE : EUC_2D
NODE_COORD_SECTION
1 374.5 950.7
2 732.0 598.7
3 156.0 156.0
4 58.1 866.2
5 601.1 708.1
6 20.6 969.9
7 832.4 212.3
8 181.8 183.4
9 304.2 524.8
10 431.9 291.2
11 611.9 139.5
12 292.1 366.4
13 456.1 785.2
14 199.7 514.2
15 592.4 46.5
16 607.5 170.5
17 65.1 948.9
18 965.6 808.4
19 304.6 97.7
20 684.2 440.2
21 122.0 495.2
22 34.4 909.3
23 258.8 662.5
24 311.7 520.1
25 546.7 184.9
26 969.6 775.1
27 939.5 894.8
28 597.9 921.9
29 88.5 196.0
30 45.2 325.3
EOF
